50
5105

514 786
120 779
808 17
701 575
637 659
147 831
844 441
603 541
520 594
954 856
512 332
390 681
607 208
990 483
322 669
878 470
473 691
400 143
805 683
531 584
367 448
561 519
899 730
874 495
893 194
113 903
278 285
930 837
429 891
750 540
549 200
992 196
94 14
325 720
874 500
371 702
738 744
650 55
108 501
145 808
561 19
194 145
952 365
387 597
842 464
449 964
795 146
940 188
79 232
188 358
